RLW08
Position Depot: Random
Horizon for Depot: Large
Position of customers: Random
Distribution of the demand: Medium
Width of time windows: Wide
Distribution of the service: Large

VEHICLE 
NUMBER 	 CAPACITY 
 7 	 	 259 
 
CUSTOMER
CUST NO. 	 XCOORD.  	 YCOORD. 	 DEMAND 	 READY TIME 	 DUE DATE 	 SERVICE TIME 
 0 	 	 419 	 	 939 	 	 0 	 	 0 	 	 3175 	 	 0 
  1 	 	 922 	 	 731 	 	 4 	 	 2508 	 	 2866 	 	 171 
  2 	 	 797 	 	 37 	 	 68 	 	 747 	 	 1075 	 	 182 
  3 	 	 526 	 	 311 	 	 7 	 	 1132 	 	 1598 	 	 141 
  4 	 	 215 	 	 284 	 	 9 	 	 2179 	 	 2529 	 	 163 
  5 	 	 306 	 	 270 	 	 5 	 	 1230 	 	 1506 	 	 133 
  6 	 	 396 	 	 902 	 	 8 	 	 2809 	 	 3095 	 	 149 
  7 	 	 40 	 	 94 	 	 6 	 	 551 	 	 1018 	 	 195 
  8 	 	 312 	 	 41 	 	 2 	 	 2346 	 	 2711 	 	 116 
  9 	 	 943 	 	 10 	 	 10 	 	 1218 	 	 1683 	 	 155 
  10 	 	 960 	 	 729 	 	 2 	 	 267 	 	 638 	 	 102 
  11 	 	 668 	 	 454 	 	 5 	 	 2591 	 	 2898 	 	 154 
  12 	 	 296 	 	 644 	 	 1 	 	 1836 	 	 2235 	 	 169 
  13 	 	 700 	 	 929 	 	 7 	 	 967 	 	 1390 	 	 106 
  14 	 	 234 	 	 341 	 	 10 	 	 1842 	 	 2146 	 	 174 
  15 	 	 523 	 	 690 	 	 7 	 	 2534 	 	 2825 	 	 199 
  16 	 	 966 	 	 241 	 	 8 	 	 561 	 	 975 	 	 186 
  17 	 	 404 	 	 223 	 	 1 	 	 1046 	 	 1262 	 	 133 
  18 	 	 799 	 	 87 	 	 5 	 	 2746 	 	 3175 	 	 188 
  19 	 	 445 	 	 312 	 	 1 	 	 1809 	 	 2098 	 	 132 
  20 	 	 561 	 	 213 	 	 7 	 	 2153 	 	 2358 	 	 172 
  21 	 	 515 	 	 304 	 	 7 	 	 1267 	 	 1516 	 	 132 
  22 	 	 165 	 	 612 	 	 2 	 	 468 	 	 963 	 	 182 
  23 	 	 386 	 	 543 	 	 1 	 	 698 	 	 1105 	 	 187 
  24 	 	 18 	 	 687 	 	 7 	 	 2886 	 	 3175 	 	 106 
  25 	 	 757 	 	 939 	 	 7 	 	 640 	 	 921 	 	 128 
  26 	 	 93 	 	 626 	 	 9 	 	 1205 	 	 1533 	 	 124 
  27 	 	 519 	 	 610 	 	 7 	 	 838 	 	 1187 	 	 179 
  28 	 	 263 	 	 914 	 	 59 	 	 2749 	 	 3085 	 	 146 
  29 	 	 592 	 	 742 	 	 4 	 	 2879 	 	 3175 	 	 168 
  30 	 	 677 	 	 22 	 	 5 	 	 683 	 	 1047 	 	 128 
  31 	 	 166 	 	 669 	 	 10 	 	 698 	 	 1096 	 	 133 
  32 	 	 263 	 	 217 	 	 7 	 	 596 	 	 812 	 	 119 
  33 	 	 736 	 	 508 	 	 69 	 	 1297 	 	 1704 	 	 199 
  34 	 	 878 	 	 364 	 	 5 	 	 979 	 	 1314 	 	 161 
  35 	 	 632 	 	 156 	 	 6 	 	 493 	 	 892 	 	 107 
  36 	 	 73 	 	 266 	 	 8 	 	 636 	 	 1068 	 	 139 
  37 	 	 41 	 	 275 	 	 1 	 	 2590 	 	 3043 	 	 200 
  38 	 	 441 	 	 835 	 	 77 	 	 1541 	 	 1928 	 	 177 
  39 	 	 737 	 	 497 	 	 7 	 	 1429 	 	 1777 	 	 112 
  40 	 	 82 	 	 979 	 	 6 	 	 1250 	 	 1741 	 	 154 
  41 	 	 722 	 	 391 	 	 7 	 	 266 	 	 688 	 	 177 
  42 	 	 205 	 	 115 	 	 94 	 	 1758 	 	 2154 	 	 122 
  43 	 	 702 	 	 136 	 	 2 	 	 2647 	 	 3024 	 	 141 
  44 	 	 517 	 	 450 	 	 60 	 	 1325 	 	 1772 	 	 172 
  45 	 	 983 	 	 188 	 	 4 	 	 2620 	 	 2947 	 	 197 
  46 	 	 134 	 	 122 	 	 9 	 	 749 	 	 951 	 	 147 
  47 	 	 292 	 	 851 	 	 53 	 	 1139 	 	 1414 	 	 116 
  48 	 	 68 	 	 735 	 	 7 	 	 966 	 	 1232 	 	 109 
  49 	 	 922 	 	 197 	 	 60 	 	 2258 	 	 2671 	 	 127 
  50 	 	 800 	 	 402 	 	 8 	 	 593 	 	 825 	 	 163 
  51 	 	 248 	 	 208 	 	 3 	 	 853 	 	 1149 	 	 178 
  52 	 	 628 	 	 717 	 	 85 	 	 946 	 	 1179 	 	 198 
  53 	 	 769 	 	 874 	 	 6 	 	 132 	 	 514 	 	 167 
  54 	 	 285 	 	 183 	 	 8 	 	 1532 	 	 2017 	 	 173 
  55 	 	 727 	 	 573 	 	 3 	 	 2138 	 	 2398 	 	 155 
  56 	 	 759 	 	 438 	 	 8 	 	 2521 	 	 3008 	 	 150 
  57 	 	 340 	 	 685 	 	 3 	 	 102 	 	 326 	 	 147 
  58 	 	 883 	 	 633 	 	 8 	 	 2150 	 	 2541 	 	 145 
  59 	 	 159 	 	 468 	 	 8 	 	 2023 	 	 2367 	 	 176 
  60 	 	 213 	 	 130 	 	 5 	 	 673 	 	 918 	 	 183 
  61 	 	 232 	 	 866 	 	 4 	 	 2571 	 	 2924 	 	 163 
  62 	 	 734 	 	 63 	 	 1 	 	 1088 	 	 1441 	 	 179 
  63 	 	 215 	 	 438 	 	 8 	 	 1126 	 	 1540 	 	 131 
  64 	 	 663 	 	 107 	 	 1 	 	 2780 	 	 3175 	 	 120 
  65 	 	 955 	 	 854 	 	 8 	 	 1793 	 	 2181 	 	 170 
  66 	 	 878 	 	 436 	 	 10 	 	 2516 	 	 2939 	 	 149 
  67 	 	 985 	 	 243 	 	 1 	 	 2181 	 	 2403 	 	 183 
  68 	 	 904 	 	 204 	 	 6 	 	 699 	 	 968 	 	 156 
  69 	 	 861 	 	 719 	 	 3 	 	 424 	 	 752 	 	 164 
  70 	 	 391 	 	 708 	 	 2 	 	 92 	 	 488 	 	 161 
  71 	 	 375 	 	 215 	 	 7 	 	 680 	 	 1126 	 	 125 
  72 	 	 172 	 	 242 	 	 6 	 	 2455 	 	 2807 	 	 161 
  73 	 	 845 	 	 859 	 	 89 	 	 2122 	 	 2581 	 	 130 
  74 	 	 777 	 	 925 	 	 68 	 	 258 	 	 749 	 	 101 
  75 	 	 777 	 	 37 	 	 2 	 	 2017 	 	 2308 	 	 158 
  76 	 	 553 	 	 82 	 	 3 	 	 2117 	 	 2339 	 	 191 
  77 	 	 931 	 	 143 	 	 6 	 	 1702 	 	 1999 	 	 151 
  78 	 	 474 	 	 861 	 	 75 	 	 1395 	 	 1600 	 	 136 
  79 	 	 216 	 	 598 	 	 1 	 	 174 	 	 602 	 	 197 
  80 	 	 415 	 	 314 	 	 5 	 	 2854 	 	 3166 	 	 195 
  81 	 	 337 	 	 933 	 	 1 	 	 103 	 	 312 	 	 190 
  82 	 	 186 	 	 615 	 	 1 	 	 854 	 	 1323 	 	 134 
  83 	 	 987 	 	 67 	 	 4 	 	 878 	 	 1144 	 	 196 
  84 	 	 423 	 	 355 	 	 8 	 	 245 	 	 642 	 	 114 
  85 	 	 312 	 	 708 	 	 4 	 	 706 	 	 1171 	 	 174 
  86 	 	 446 	 	 580 	 	 1 	 	 398 	 	 841 	 	 190 
  87 	 	 782 	 	 945 	 	 72 	 	 154 	 	 480 	 	 171 
  88 	 	 659 	 	 891 	 	 3 	 	 1506 	 	 1777 	 	 178 
  89 	 	 711 	 	 749 	 	 62 	 	 395 	 	 665 	 	 177 
  90 	 	 906 	 	 704 	 	 58 	 	 2958 	 	 3175 	 	 176 
  91 	 	 284 	 	 279 	 	 3 	 	 2767 	 	 2971 	 	 108 
  92 	 	 817 	 	 467 	 	 77 	 	 2722 	 	 3125 	 	 139 
  93 	 	 701 	 	 136 	 	 6 	 	 1644 	 	 2023 	 	 137 
  94 	 	 905 	 	 486 	 	 5 	 	 371 	 	 730 	 	 129 
  95 	 	 711 	 	 869 	 	 1 	 	 90 	 	 330 	 	 176 
  96 	 	 474 	 	 2 	 	 90 	 	 871 	 	 1138 	 	 191 
  97 	 	 401 	 	 824 	 	 89 	 	 1434 	 	 1747 	 	 175 
  98 	 	 872 	 	 864 	 	 3 	 	 2804 	 	 3115 	 	 120 
  99 	 	 92 	 	 906 	 	 71 	 	 1298 	 	 1542 	 	 115 
  100 	 	 954 	 	 822 	 	 64 	 	 654 	 	 1022 	 	 171 
 